22	3

10	10	10	

0	0	0	0	3	2	3	4	
2	3	5	2	2	5	6	
1	5	4	3	2	5	6	
5	5	2	2	3	6	7	8	
2	4	1	4	2	9	11	
5	5	5	4	2	9	11	
1	3	5	2	2	9	12	
1	2	4	4	2	10	11	
9	3	2	2	1	13	
6	3	2	4	2	14	16	
1	3	3	2	1	15	
7	4	1	4	1	14	
1	1	4	4	1	19	
4	2	2	2	1	18	
4	5	5	4	1	18	
2	1	5	4	1	17	
2	4	5	4	2	20	21	
3	3	2	3	1	20	
6	5	3	3	1	20	
6	2	4	6	1	22	
2	1	6	2	1	22	
0	0	0	0	0	
